Please solve the following SAT Problem encoded in DIMACS format, provide line of thoughts, write your final answer as a single solution at the end of response with header 'answer: ' : 
p cnf 10 95
-1 -4 2 0
-9 8 7 0
8 4 -9 0
2 -9 -7 0
-4 7 8 0
-1 5 8 0
8 5 -4 0
2 8 5 0
-4 -6 2 0
-2 6 -9 0
7 -4 5 0
2 7 -10 0
7 10 8 0
-10 -1 5 0
5 10 8 0
-6 7 -1 0
8 2 10 0
5 -6 -1 0
-6 7 10 0
7 -9 -4 0
10 5 8 0
7 -5 -1 0
7 3 6 0
2 9 7 0
8 10 -9 0
-9 8 6 0
8 -9 10 0
8 -6 5 0
7 -9 -6 0
-2 7 -6 0
5 -6 2 0
3 10 5 0
-9 -4 3 0
2 8 7 0
-1 -7 3 0
10 -9 3 0
-1 8 -4 0
2 5 3 0
-9 10 5 0
8 -6 3 0
-1 -6 5 0
1 10 -2 0
-6 -1 -5 0
10 -9 8 0
-9 -1 -10 0
-1 -4 -10 0
10 7 -6 0
-5 8 1 0
2 -6 8 0
-1 -4 2 0
2 -3 -6 0
10 -9 -5 0
7 5 10 0
-6 -8 10 0
-9 2 -1 0
-4 5 -2 0
-4 -9 8 0
3 -6 -7 0
2 7 5 0
-7 -6 -1 0
5 8 -10 0
-6 3 -1 0
10 -9 6 0
-7 -8 3 0
8 7 3 0
8 -1 -9 0
2 5 4 0
8 -9 -4 0
-4 7 -3 0
6 2 -9 0
3 2 10 0
10 3 7 0
7 2 -4 0
-10 7 4 0
2 5 10 0
3 4 -1 0
-1 -4 2 0
-10 3 -4 0
9 -7 3 0
6 10 5 0
8 -6 9 0
8 7 -10 0
8 -4 10 0
-6 8 -1 0
10 5 7 0
5 -6 -9 0
5 7 -4 0
-5 7 -1 0
6 -4 1 0
-1 8 -6 0
-4 -8 10 0
-9 10 4 0
3 7 5 0
-1 8 7 0
2 7 -9 0

